Rodando pra 1h

Optimize a model with 154 rows, 140 columns and 1934 nonzeros
Coefficient statistics:
  Matrix range    [1e+00, 1e+04]
  Objective range [2e-01, 2e-01]
  Bounds range    [1e+00, 1e+04]
  RHS range       [1e+00, 1e+04]
Found heuristic solution: objective 248.4
Presolve removed 5 rows and 5 columns
Presolve time: 0.00s
Presolved: 149 rows, 135 columns, 1824 nonzeros
Variable types: 20 continuous, 115 integer (110 binary)

Root relaxation: objective 1.352652e+01, 75 iterations, 0.00 seconds

    Nodes    |    Current Node    |     Objective Bounds      |     Work
 Expl Unexpl |  Obj  Depth IntInf | Incumbent    BestBd   Gap | It/Node Time

     0     0   13.52652    0   43  248.40000   13.52652  94.6%     -    0s
H    0     0                     248.0000000   13.52652  94.5%     -    0s
H    0     0                     241.8000000   13.52652  94.4%     -    0s
     0     0   36.26878    0   48  241.80000   36.26878  85.0%     -    0s
H    0     0                     233.8000000   36.26878  84.5%     -    0s
     0     0   36.59439    0   47  233.80000   36.59439  84.3%     -    0s
     0     0   46.36008    0   57  233.80000   46.36008  80.2%     -    0s
H    0     0                     230.6000000   46.36008  79.9%     -    0s
     0     0   52.77781    0   53  230.60000   52.77781  77.1%     -    0s
     0     0   60.73129    0   64  230.60000   60.73129  73.7%     -    0s
     0     0   63.76374    0   67  230.60000   63.76374  72.3%     -    0s
     0     0   65.17316    0   57  230.60000   65.17316  71.7%     -    0s
     0     0   66.68920    0   71  230.60000   66.68920  71.1%     -    0s
     0     0   67.71589    0   66  230.60000   67.71589  70.6%     -    0s
H    0     0                     221.6000000   67.71589  69.4%     -    0s
     0     0   68.02940    0   64  221.60000   68.02940  69.3%     -    0s
     0     0   68.76937    0   70  221.60000   68.76937  69.0%     -    0s
H    0     0                     216.8000000   68.76937  68.3%     -    0s
     0     0   68.89686    0   67  216.80000   68.89686  68.2%     -    0s
     0     0   69.61420    0   68  216.80000   69.61420  67.9%     -    0s
H    0     0                     202.0000000   69.61420  65.5%     -    0s
     0     0   70.27334    0   68  202.00000   70.27334  65.2%     -    0s
     0     0   72.01200    0   63  202.00000   72.01200  64.4%     -    0s
     0     0   73.26861    0   63  202.00000   73.26861  63.7%     -    0s
     0     0   74.06022    0   65  202.00000   74.06022  63.3%     -    0s
     0     0   74.46360    0   65  202.00000   74.46360  63.1%     -    0s
     0     0   74.66761    0   67  202.00000   74.66761  63.0%     -    0s
     0     0   74.66761    0   63  202.00000   74.66761  63.0%     -    0s
     0     2   74.69362    0   63  202.00000   74.69362  63.0%     -    0s
H  217   147                     188.8000000   77.69918  58.8%   8.1    0s
H  531   278                     176.6000000   85.09133  51.8%   7.0    0s
H  531   263                     176.2000000   85.09133  51.7%   7.0    0s
*  703   277              26     176.0000000   98.97696  43.8%  12.1    1s

Cutting planes:
  Gomory: 3
  MIR: 70
  Flow cover: 122
  Flow path: 3
  Zero half: 2
  Network: 2

Explored 1535 nodes (20884 simplex iterations) in 2.71 seconds
Thread count was 1 (of 4 available processors)

Optimal solution found (tolerance 1.00e-04)
Best objective 1.760000000000e+02, best bound 1.760000000000e+02, gap 0.0%
Tempo: 2.54 segundos

0 2 0 56 76 17 79 26 30 26 71 6 
1 3 0 76 0 78 14 12 64 42 12 6 
1 4 72 36 15 48 32 49 71 20 20 90 
2 3 70 27 51 19 21 60 65 58 30 28 
(142 195 142 162 146 147 230 146 133 130 )

